$instance size is  500
letting capacity be  147858
letting items be new type enum { 
a1,a2,a3,a4,a5,a6,a7,a8,a9,a10,a11,a12,a13,a14,a15,a16,a17,a18,a19,a20,a21,a22,a23,a24,a25,a26,a27,a28,a29,a30,a31,a32,a33,a34,a35,a36,a37,a38,a39,a40,a41,a42,a43,a44,a45,a46,a47,a48,a49,a50,a51,a52,a53,a54,a55,a56,a57,a58,a59,a60,a61,a62,a63,a64,a65,a66,a67,a68,a69,a70,a71,a72,a73,a74,a75,a76,a77,a78,a79,a80,a81,a82,a83,a84,a85,a86,a87,a88,a89,a90,a91,a92,a93,a94,a95,a96,a97,a98,a99,a100,a101,a102,a103,a104,a105,a106,a107,a108,a109,a110,a111,a112,a113,a114,a115,a116,a117,a118,a119,a120,a121,a122,a123,a124,a125,a126,a127,a128,a129,a130,a131,a132,a133,a134,a135,a136,a137,a138,a139,a140,a141,a142,a143,a144,a145,a146,a147,a148,a149,a150,a151,a152,a153,a154,a155,a156,a157,a158,a159,a160,a161,a162,a163,a164,a165,a166,a167,a168,a169,a170,a171,a172,a173,a174,a175,a176,a177,a178,a179,a180,a181,a182,a183,a184,a185,a186,a187,a188,a189,a190,a191,a192,a193,a194,a195,a196,a197,a198,a199,a200,a201,a202,a203,a204,a205,a206,a207,a208,a209,a210,a211,a212,a213,a214,a215,a216,a217,a218,a219,a220,a221,a222,a223,a224,a225,a226,a227,a228,a229,a230,a231,a232,a233,a234,a235,a236,a237,a238,a239,a240,a241,a242,a243,a244,a245,a246,a247,a248,a249,a250,a251,a252,a253,a254,a255,a256,a257,a258,a259,a260,a261,a262,a263,a264,a265,a266,a267,a268,a269,a270,a271,a272,a273,a274,a275,a276,a277,a278,a279,a280,a281,a282,a283,a284,a285,a286,a287,a288,a289,a290,a291,a292,a293,a294,a295,a296,a297,a298,a299,a300,a301,a302,a303,a304,a305,a306,a307,a308,a309,a310,a311,a312,a313,a314,a315,a316,a317,a318,a319,a320,a321,a322,a323,a324,a325,a326,a327,a328,a329,a330,a331,a332,a333,a334,a335,a336,a337,a338,a339,a340,a341,a342,a343,a344,a345,a346,a347,a348,a349,a350,a351,a352,a353,a354,a355,a356,a357,a358,a359,a360,a361,a362,a363,a364,a365,a366,a367,a368,a369,a370,a371,a372,a373,a374,a375,a376,a377,a378,a379,a380,a381,a382,a383,a384,a385,a386,a387,a388,a389,a390,a391,a392,a393,a394,a395,a396,a397,a398,a399,a400,a401,a402,a403,a404,a405,a406,a407,a408,a409,a410,a411,a412,a413,a414,a415,a416,a417,a418,a419,a420,a421,a422,a423,a424,a425,a426,a427,a428,a429,a430,a431,a432,a433,a434,a435,a436,a437,a438,a439,a440,a441,a442,a443,a444,a445,a446,a447,a448,a449,a450,a451,a452,a453,a454,a455,a456,a457,a458,a459,a460,a461,a462,a463,a464,a465,a466,a467,a468,a469,a470,a471,a472,a473,a474,a475,a476,a477,a478,a479,a480,a481,a482,a483,a484,a485,a486,a487,a488,a489,a490,a491,a492,a493,a494,a495,a496,a497,a498,a499,a500
}
letting weight be function (
a1 --> 590,a2 --> 118,a3 --> 944,a4 --> 826,a5 --> 192,a6 --> 768,a7 --> 96,a8 --> 960,a9 --> 192,a10 --> 118,a11 --> 1180,a12 --> 864,a13 --> 576,a14 --> 576,a15 --> 192,a16 --> 864,a17 --> 354,a18 --> 944,a19 --> 384,a20 --> 384,a21 --> 708,a22 --> 96,a23 --> 960,a24 --> 384,a25 --> 1062,a26 --> 826,a27 --> 944,a28 --> 472,a29 --> 288,a30 --> 480,a31 --> 590,a32 --> 480,a33 --> 960,a34 --> 768,a35 --> 590,a36 --> 590,a37 --> 384,a38 --> 1062,a39 --> 236,a40 --> 118,a41 --> 944,a42 --> 118,a43 --> 354,a44 --> 672,a45 --> 472,a46 --> 472,a47 --> 826,a48 --> 192,a49 --> 472,a50 --> 118,a51 --> 768,a52 --> 354,a53 --> 472,a54 --> 472,a55 --> 236,a56 --> 960,a57 --> 590,a58 --> 960,a59 --> 768,a60 --> 826,a61 --> 576,a62 --> 768,a63 --> 384,a64 --> 864,a65 --> 708,a66 --> 192,a67 --> 354,a68 --> 576,a69 --> 576,a70 --> 960,a71 --> 768,a72 --> 826,a73 --> 864,a74 --> 1062,a75 --> 384,a76 --> 354,a77 --> 864,a78 --> 864,a79 --> 576,a80 --> 236,a81 --> 1062,a82 --> 672,a83 --> 576,a84 --> 960,a85 --> 192,a86 --> 96,a87 --> 96,a88 --> 1062,a89 --> 672,a90 --> 944,a91 --> 96,a92 --> 960,a93 --> 192,a94 --> 96,a95 --> 576,a96 --> 826,a97 --> 590,a98 --> 480,a99 --> 118,a100 --> 864,a101 --> 590,a102 --> 1180,a103 --> 118,a104 --> 236,a105 --> 826,a106 --> 480,a107 --> 864,a108 --> 472,a109 --> 864,a110 --> 384,a111 --> 118,a112 --> 1180,a113 --> 288,a114 --> 1180,a115 --> 944,a116 --> 864,a117 --> 1180,a118 --> 590,a119 --> 708,a120 --> 480,a121 --> 944,a122 --> 384,a123 --> 96,a124 --> 384,a125 --> 708,a126 --> 96,a127 --> 672,a128 --> 708,a129 --> 384,a130 --> 472,a131 --> 826,a132 --> 288,a133 --> 192,a134 --> 826,a135 --> 192,a136 --> 354,a137 --> 826,a138 --> 472,a139 --> 384,a140 --> 192,a141 --> 672,a142 --> 96,a143 --> 576,a144 --> 192,a145 --> 96,a146 --> 576,a147 --> 960,a148 --> 354,a149 --> 826,a150 --> 1180,a151 --> 576,a152 --> 864,a153 --> 288,a154 --> 960,a155 --> 1180,a156 --> 118,a157 --> 480,a158 --> 96,a159 --> 192,a160 --> 480,a161 --> 96,a162 --> 354,a163 --> 576,a164 --> 1180,a165 --> 1062,a166 --> 1180,a167 --> 960,a168 --> 118,a169 --> 672,a170 --> 288,a171 --> 944,a172 --> 480,a173 --> 288,a174 --> 354,a175 --> 768,a176 --> 480,a177 --> 354,a178 --> 192,a179 --> 288,a180 --> 1180,a181 --> 826,a182 --> 288,a183 --> 1180,a184 --> 826,a185 --> 864,a186 --> 960,a187 --> 944,a188 --> 288,a189 --> 118,a190 --> 826,a191 --> 960,a192 --> 672,a193 --> 944,a194 --> 384,a195 --> 944,a196 --> 118,a197 --> 118,a198 --> 192,a199 --> 354,a200 --> 708,a201 --> 590,a202 --> 118,a203 --> 944,a204 --> 672,a205 --> 1062,a206 --> 590,a207 --> 472,a208 --> 708,a209 --> 708,a210 --> 236,a211 --> 480,a212 --> 472,a213 --> 118,a214 --> 288,a215 --> 826,a216 --> 480,a217 --> 590,a218 --> 864,a219 --> 864,a220 --> 960,a221 --> 384,a222 --> 1180,a223 --> 672,a224 --> 480,a225 --> 1062,a226 --> 708,a227 --> 590,a228 --> 384,a229 --> 1180,a230 --> 864,a231 --> 590,a232 --> 590,a233 --> 944,a234 --> 768,a235 --> 708,a236 --> 1180,a237 --> 672,a238 --> 1062,a239 --> 472,a240 --> 236,a241 --> 192,a242 --> 768,a243 --> 96,a244 --> 288,a245 --> 672,a246 --> 480,a247 --> 236,a248 --> 944,a249 --> 944,a250 --> 288,a251 --> 118,a252 --> 944,a253 --> 960,a254 --> 480,a255 --> 480,a256 --> 118,a257 --> 960,a258 --> 944,a259 --> 1180,a260 --> 1062,a261 --> 960,a262 --> 1180,a263 --> 384,a264 --> 1180,a265 --> 472,a266 --> 590,a267 --> 960,a268 --> 236,a269 --> 590,a270 --> 1180,a271 --> 708,a272 --> 944,a273 --> 192,a274 --> 118,a275 --> 384,a276 --> 480,a277 --> 192,a278 --> 768,a279 --> 708,a280 --> 864,a281 --> 288,a282 --> 960,a283 --> 864,a284 --> 944,a285 --> 826,a286 --> 236,a287 --> 590,a288 --> 1180,a289 --> 384,a290 --> 864,a291 --> 1180,a292 --> 576,a293 --> 472,a294 --> 960,a295 --> 1062,a296 --> 480,a297 --> 768,a298 --> 96,a299 --> 288,a300 --> 826,a301 --> 672,a302 --> 480,a303 --> 1062,a304 --> 590,a305 --> 960,a306 --> 768,a307 --> 236,a308 --> 1062,a309 --> 944,a310 --> 944,a311 --> 944,a312 --> 236,a313 --> 354,a314 --> 96,a315 --> 708,a316 --> 960,a317 --> 96,a318 --> 1180,a319 --> 864,a320 --> 480,a321 --> 288,a322 --> 236,a323 --> 768,a324 --> 1180,a325 --> 384,a326 --> 96,a327 --> 288,a328 --> 826,a329 --> 864,a330 --> 944,a331 --> 576,a332 --> 236,a333 --> 96,a334 --> 960,a335 --> 768,a336 --> 480,a337 --> 288,a338 --> 826,a339 --> 192,a340 --> 960,a341 --> 1062,a342 --> 944,a343 --> 118,a344 --> 576,a345 --> 672,a346 --> 472,a347 --> 576,a348 --> 1180,a349 --> 768,a350 --> 384,a351 --> 236,a352 --> 672,a353 --> 480,a354 --> 708,a355 --> 192,a356 --> 354,a357 --> 96,a358 --> 1180,a359 --> 708,a360 --> 288,a361 --> 768,a362 --> 472,a363 --> 944,a364 --> 1062,a365 --> 354,a366 --> 768,a367 --> 96,a368 --> 118,a369 --> 768,a370 --> 1062,a371 --> 864,a372 --> 944,a373 --> 288,a374 --> 590,a375 --> 118,a376 --> 1180,a377 --> 960,a378 --> 480,a379 --> 96,a380 --> 236,a381 --> 708,a382 --> 960,a383 --> 384,a384 --> 826,a385 --> 864,a386 --> 960,a387 --> 768,a388 --> 1062,a389 --> 864,a390 --> 1180,a391 --> 944,a392 --> 354,a393 --> 576,a394 --> 354,a395 --> 480,a396 --> 192,a397 --> 288,a398 --> 1180,a399 --> 1180,a400 --> 768,a401 --> 472,a402 --> 96,a403 --> 96,a404 --> 708,a405 --> 236,a406 --> 118,a407 --> 672,a408 --> 354,a409 --> 236,a410 --> 472,a411 --> 480,a412 --> 768,a413 --> 480,a414 --> 864,a415 --> 118,a416 --> 118,a417 --> 708,a418 --> 118,a419 --> 826,a420 --> 472,a421 --> 236,a422 --> 590,a423 --> 192,a424 --> 288,a425 --> 960,a426 --> 354,a427 --> 672,a428 --> 768,a429 --> 864,a430 --> 576,a431 --> 472,a432 --> 708,a433 --> 576,a434 --> 236,a435 --> 768,a436 --> 672,a437 --> 192,a438 --> 768,a439 --> 864,a440 --> 960,a441 --> 472,a442 --> 944,a443 --> 944,a444 --> 864,a445 --> 590,a446 --> 192,a447 --> 960,a448 --> 236,a449 --> 672,a450 --> 384,a451 --> 1180,a452 --> 472,a453 --> 576,a454 --> 576,a455 --> 672,a456 --> 590,a457 --> 288,a458 --> 288,a459 --> 1062,a460 --> 672,a461 --> 826,a462 --> 590,a463 --> 96,a464 --> 354,a465 --> 1062,a466 --> 384,a467 --> 590,a468 --> 96,a469 --> 864,a470 --> 1062,a471 --> 672,a472 --> 236,a473 --> 472,a474 --> 590,a475 --> 708,a476 --> 960,a477 --> 576,a478 --> 288,a479 --> 288,a480 --> 590,a481 --> 944,a482 --> 118,a483 --> 192,a484 --> 384,a485 --> 354,a486 --> 236,a487 --> 192,a488 --> 288,a489 --> 236,a490 --> 708,a491 --> 1180,a492 --> 480,a493 --> 288,a494 --> 192,a495 --> 354,a496 --> 1180,a497 --> 472,a498 --> 672,a499 --> 480,a500 --> 96
)
letting gain be function (
a1 --> 690,a2 --> 138,a3 --> 1104,a4 --> 966,a5 --> 232,a6 --> 928,a7 --> 116,a8 --> 1160,a9 --> 232,a10 --> 138,a11 --> 1380,a12 --> 1044,a13 --> 696,a14 --> 696,a15 --> 232,a16 --> 1044,a17 --> 414,a18 --> 1104,a19 --> 464,a20 --> 464,a21 --> 828,a22 --> 116,a23 --> 1160,a24 --> 464,a25 --> 1242,a26 --> 966,a27 --> 1104,a28 --> 552,a29 --> 348,a30 --> 580,a31 --> 690,a32 --> 580,a33 --> 1160,a34 --> 928,a35 --> 690,a36 --> 690,a37 --> 464,a38 --> 1242,a39 --> 276,a40 --> 138,a41 --> 1104,a42 --> 138,a43 --> 414,a44 --> 812,a45 --> 552,a46 --> 552,a47 --> 966,a48 --> 232,a49 --> 552,a50 --> 138,a51 --> 928,a52 --> 414,a53 --> 552,a54 --> 552,a55 --> 276,a56 --> 1160,a57 --> 690,a58 --> 1160,a59 --> 928,a60 --> 966,a61 --> 696,a62 --> 928,a63 --> 464,a64 --> 1044,a65 --> 828,a66 --> 232,a67 --> 414,a68 --> 696,a69 --> 696,a70 --> 1160,a71 --> 928,a72 --> 966,a73 --> 1044,a74 --> 1242,a75 --> 464,a76 --> 414,a77 --> 1044,a78 --> 1044,a79 --> 696,a80 --> 276,a81 --> 1242,a82 --> 812,a83 --> 696,a84 --> 1160,a85 --> 232,a86 --> 116,a87 --> 116,a88 --> 1242,a89 --> 812,a90 --> 1104,a91 --> 116,a92 --> 1160,a93 --> 232,a94 --> 116,a95 --> 696,a96 --> 966,a97 --> 690,a98 --> 580,a99 --> 138,a100 --> 1044,a101 --> 690,a102 --> 1380,a103 --> 138,a104 --> 276,a105 --> 966,a106 --> 580,a107 --> 1044,a108 --> 552,a109 --> 1044,a110 --> 464,a111 --> 138,a112 --> 1380,a113 --> 348,a114 --> 1380,a115 --> 1104,a116 --> 1044,a117 --> 1380,a118 --> 690,a119 --> 828,a120 --> 580,a121 --> 1104,a122 --> 464,a123 --> 116,a124 --> 464,a125 --> 828,a126 --> 116,a127 --> 812,a128 --> 828,a129 --> 464,a130 --> 552,a131 --> 966,a132 --> 348,a133 --> 232,a134 --> 966,a135 --> 232,a136 --> 414,a137 --> 966,a138 --> 552,a139 --> 464,a140 --> 232,a141 --> 812,a142 --> 116,a143 --> 696,a144 --> 232,a145 --> 116,a146 --> 696,a147 --> 1160,a148 --> 414,a149 --> 966,a150 --> 1380,a151 --> 696,a152 --> 1044,a153 --> 348,a154 --> 1160,a155 --> 1380,a156 --> 138,a157 --> 580,a158 --> 116,a159 --> 232,a160 --> 580,a161 --> 116,a162 --> 414,a163 --> 696,a164 --> 1380,a165 --> 1242,a166 --> 1380,a167 --> 1160,a168 --> 138,a169 --> 812,a170 --> 348,a171 --> 1104,a172 --> 580,a173 --> 348,a174 --> 414,a175 --> 928,a176 --> 580,a177 --> 414,a178 --> 232,a179 --> 348,a180 --> 1380,a181 --> 966,a182 --> 348,a183 --> 1380,a184 --> 966,a185 --> 1044,a186 --> 1160,a187 --> 1104,a188 --> 348,a189 --> 138,a190 --> 966,a191 --> 1160,a192 --> 812,a193 --> 1104,a194 --> 464,a195 --> 1104,a196 --> 138,a197 --> 138,a198 --> 232,a199 --> 414,a200 --> 828,a201 --> 690,a202 --> 138,a203 --> 1104,a204 --> 812,a205 --> 1242,a206 --> 690,a207 --> 552,a208 --> 828,a209 --> 828,a210 --> 276,a211 --> 580,a212 --> 552,a213 --> 138,a214 --> 348,a215 --> 966,a216 --> 580,a217 --> 690,a218 --> 1044,a219 --> 1044,a220 --> 1160,a221 --> 464,a222 --> 1380,a223 --> 812,a224 --> 580,a225 --> 1242,a226 --> 828,a227 --> 690,a228 --> 464,a229 --> 1380,a230 --> 1044,a231 --> 690,a232 --> 690,a233 --> 1104,a234 --> 928,a235 --> 828,a236 --> 1380,a237 --> 812,a238 --> 1242,a239 --> 552,a240 --> 276,a241 --> 232,a242 --> 928,a243 --> 116,a244 --> 348,a245 --> 812,a246 --> 580,a247 --> 276,a248 --> 1104,a249 --> 1104,a250 --> 348,a251 --> 138,a252 --> 1104,a253 --> 1160,a254 --> 580,a255 --> 580,a256 --> 138,a257 --> 1160,a258 --> 1104,a259 --> 1380,a260 --> 1242,a261 --> 1160,a262 --> 1380,a263 --> 464,a264 --> 1380,a265 --> 552,a266 --> 690,a267 --> 1160,a268 --> 276,a269 --> 690,a270 --> 1380,a271 --> 828,a272 --> 1104,a273 --> 232,a274 --> 138,a275 --> 464,a276 --> 580,a277 --> 232,a278 --> 928,a279 --> 828,a280 --> 1044,a281 --> 348,a282 --> 1160,a283 --> 1044,a284 --> 1104,a285 --> 966,a286 --> 276,a287 --> 690,a288 --> 1380,a289 --> 464,a290 --> 1044,a291 --> 1380,a292 --> 696,a293 --> 552,a294 --> 1160,a295 --> 1242,a296 --> 580,a297 --> 928,a298 --> 116,a299 --> 348,a300 --> 966,a301 --> 812,a302 --> 580,a303 --> 1242,a304 --> 690,a305 --> 1160,a306 --> 928,a307 --> 276,a308 --> 1242,a309 --> 1104,a310 --> 1104,a311 --> 1104,a312 --> 276,a313 --> 414,a314 --> 116,a315 --> 828,a316 --> 1160,a317 --> 116,a318 --> 1380,a319 --> 1044,a320 --> 580,a321 --> 348,a322 --> 276,a323 --> 928,a324 --> 1380,a325 --> 464,a326 --> 116,a327 --> 348,a328 --> 966,a329 --> 1044,a330 --> 1104,a331 --> 696,a332 --> 276,a333 --> 116,a334 --> 1160,a335 --> 928,a336 --> 580,a337 --> 348,a338 --> 966,a339 --> 232,a340 --> 1160,a341 --> 1242,a342 --> 1104,a343 --> 138,a344 --> 696,a345 --> 812,a346 --> 552,a347 --> 696,a348 --> 1380,a349 --> 928,a350 --> 464,a351 --> 276,a352 --> 812,a353 --> 580,a354 --> 828,a355 --> 232,a356 --> 414,a357 --> 116,a358 --> 1380,a359 --> 828,a360 --> 348,a361 --> 928,a362 --> 552,a363 --> 1104,a364 --> 1242,a365 --> 414,a366 --> 928,a367 --> 116,a368 --> 138,a369 --> 928,a370 --> 1242,a371 --> 1044,a372 --> 1104,a373 --> 348,a374 --> 690,a375 --> 138,a376 --> 1380,a377 --> 1160,a378 --> 580,a379 --> 116,a380 --> 276,a381 --> 828,a382 --> 1160,a383 --> 464,a384 --> 966,a385 --> 1044,a386 --> 1160,a387 --> 928,a388 --> 1242,a389 --> 1044,a390 --> 1380,a391 --> 1104,a392 --> 414,a393 --> 696,a394 --> 414,a395 --> 580,a396 --> 232,a397 --> 348,a398 --> 1380,a399 --> 1380,a400 --> 928,a401 --> 552,a402 --> 116,a403 --> 116,a404 --> 828,a405 --> 276,a406 --> 138,a407 --> 812,a408 --> 414,a409 --> 276,a410 --> 552,a411 --> 580,a412 --> 928,a413 --> 580,a414 --> 1044,a415 --> 138,a416 --> 138,a417 --> 828,a418 --> 138,a419 --> 966,a420 --> 552,a421 --> 276,a422 --> 690,a423 --> 232,a424 --> 348,a425 --> 1160,a426 --> 414,a427 --> 812,a428 --> 928,a429 --> 1044,a430 --> 696,a431 --> 552,a432 --> 828,a433 --> 696,a434 --> 276,a435 --> 928,a436 --> 812,a437 --> 232,a438 --> 928,a439 --> 1044,a440 --> 1160,a441 --> 552,a442 --> 1104,a443 --> 1104,a444 --> 1044,a445 --> 690,a446 --> 232,a447 --> 1160,a448 --> 276,a449 --> 812,a450 --> 464,a451 --> 1380,a452 --> 552,a453 --> 696,a454 --> 696,a455 --> 812,a456 --> 690,a457 --> 348,a458 --> 348,a459 --> 1242,a460 --> 812,a461 --> 966,a462 --> 690,a463 --> 116,a464 --> 414,a465 --> 1242,a466 --> 464,a467 --> 690,a468 --> 116,a469 --> 1044,a470 --> 1242,a471 --> 812,a472 --> 276,a473 --> 552,a474 --> 690,a475 --> 828,a476 --> 1160,a477 --> 696,a478 --> 348,a479 --> 348,a480 --> 690,a481 --> 1104,a482 --> 138,a483 --> 232,a484 --> 464,a485 --> 414,a486 --> 276,a487 --> 232,a488 --> 348,a489 --> 276,a490 --> 828,a491 --> 1380,a492 --> 580,a493 --> 348,a494 --> 232,a495 --> 414,a496 --> 1380,a497 --> 552,a498 --> 812,a499 --> 580,a500 --> 116
)
